seed= 2052018 ;
N= 630 ;
M= 2 ;
F= 3 ;
K= 8 ;
T= 132 ;

p=[ 2 2 2 2 2 2 2 2 2 2 2 2 2 2 2 2 2 2 2 2 2 2 2 2 2 2 2 2 2 2 2 2 2 2 2 2 2 2 2 2 2 2 2 2 2 2 2 2 2 2 2 2 2 2 2 2 2 2 2 2 2 2 2 2 2 2 2 2 2 2 2 2 2 2 2 2 2 2 2 2 2 2 2 2 2 2 2 2 2 2 2 2 2 2 2 2 2 2 2 2 2 2 2 2 2 2 2 2 2 2 2 2 2 2 2 2 2 2 2 2 2 2 2 2 2 2 2 2 2 2 2 2 2 2 2 2 2 2 2 2 2 2 2 2 2 2 2 2 2 2 2 2 2 2 2 2 2 2 2 2 2 2 2 2 2 2 2 2 2 2 2 2 2 2 2 2 2 2 2 2 2 2 2 2 2 2 2 2 2 2 2 2 2 2 2 2 2 2 2 2 2 2 2 2 2 2 2 2 2 2 2 2 2 2 2 2 2 2 2 2 2 2 2 2 2 2 2 2 2 2 2 2 2 2 2 2 2 2 2 2 2 2 2 2 2 2 2 2 2 2 2 2 2 2 2 2 2 2 2 2 2 2 2 2 2 2 2 2 2 2 2 2 2 2 2 2 2 2 2 2 2 2 2 2 2 2 2 2 2 2 2 2 2 2 2 2 2 2 2 2 2 2 2 2 2 2 2 2 2 2 2 2 2 2 2 2 2 2 2 2 2 2 2 2 2 2 2 2 2 2 2 2 2 2 2 2 2 2 2 2 2 2 2 2 2 2 2 2 2 2 2 2 2 2 2 2 2 2 2 2 2 2 2 2 2 2 2 2 2 2 2 2 2 2 2 2 2 2 2 2 2 2 2 2 2 2 2 2 2 2 2 2 2 2 2 2 2 2 2 2 2 2 2 2 2 2 2 2 2 2 2 2 2 2 2 2 2 2 2 2 4 4 4 4 4 4 4 4 4 4 4 4 4 4 4 4 4 4 4 4 4 4 4 4 4 4 4 4 4 4 4 4 4 4 4 4 4 4 4 4 4 4 4 4 4 4 4 4 4 4 4 4 4 4 4 4 4 4 4 4 4 4 4 4 4 4 4 4 4 4 4 4 4 4 4 4 4 4 4 4 4 4 4 4 4 4 4 4 4 4 4 4 4 4 4 4 4 4 4 4 4 4 4 4 4 4 4 4 4 4 4 4 4 4 4 4 4 4 4 4 4 4 4 4 4 4 4 4 4 4 4 4 4 4 4 4 4 4 4 4 4 4 4 4 4 4 4 4 4 4 4 4 4 4 4 4 4 4 4 4 4 4 4 4 4 4 4 4 4 4 4 4 4 4 4 4 4 4 4 4 4 4 4 4 4 4 4 4 4 4 4 4 4 4 4 4 4 4 4 4 4 4 4 4 4 4 4 4 4 4 ];
r=[ 0 0 0 0 0 0 0 0 0 0 0 0 0 0 0 0 0 0 0 0 0 0 0 0 0 0 0 0 0 0 0 0 0 0 0 0 0 0 0 0 0 0 0 0 0 0 0 0 0 0 0 0 0 0 0 0 0 0 0 0 0 0 0 0 0 0 0 0 0 0 0 0 0 0 0 0 0 0 0 0 0 0 0 0 0 0 0 0 0 0 0 0 0 0 0 0 0 0 0 0 0 0 0 0 0 0 0 0 0 0 0 0 0 0 0 0 0 0 0 0 0 0 0 0 0 0 0 0 0 0 0 0 0 0 0 0 0 0 0 0 0 0 0 0 0 0 0 0 0 0 0 0 0 0 0 0 0 0 0 0 0 0 0 0 0 0 0 0 0 0 0 0 0 0 0 0 0 0 0 0 0 0 0 0 0 0 0 0 0 0 0 0 0 0 0 0 0 0 0 0 0 0 0 0 0 0 0 0 0 0 0 0 0 0 0 0 0 0 0 0 0 0 0 0 0 0 0 0 0 0 0 0 0 0 0 0 0 0 0 0 0 0 0 0 0 0 0 0 0 0 0 0 0 0 0 0 0 0 0 0 0 0 0 0 0 0 0 0 0 0 0 0 0 0 0 0 0 0 0 0 0 0 0 0 0 0 0 0 0 0 0 0 0 0 0 0 0 0 0 0 0 0 0 0 0 0 0 0 0 0 0 0 0 0 0 0 0 0 0 0 0 0 0 0 0 0 0 0 0 0 0 0 0 0 0 0 0 0 0 0 0 0 0 0 0 0 0 0 0 0 0 0 0 0 0 0 0 0 0 0 0 0 0 0 0 0 0 0 0 0 0 0 0 0 0 0 0 0 0 0 0 0 0 0 0 0 0 0 0 0 0 0 0 0 0 0 0 0 0 0 0 0 0 0 0 0 0 0 0 0 0 0 0 0 0 0 0 0 0 0 0 0 0 0 0 0 0 0 0 0 0 0 0 0 0 0 0 0 0 0 0 0 0 0 0 0 0 0 0 0 0 0 0 0 0 0 0 0 0 0 0 0 0 0 0 0 0 0 0 0 0 0 0 0 0 0 0 0 0 0 0 0 0 0 0 0 0 0 0 0 0 0 0 0 0 0 0 0 0 0 0 0 0 0 0 0 0 0 0 0 0 0 0 0 0 0 0 0 0 0 0 0 0 0 0 0 0 0 0 0 0 0 0 0 0 0 0 0 0 0 0 0 0 0 0 0 0 0 0 0 0 0 0 0 0 0 0 0 0 0 0 0 0 0 0 0 0 0 0 0 0 0 0 0 0 0 0 0 0 0 0 0 0 0 0 0 0 0 0 0 0 0 0 0 0 0 0 0 0 0 0 0 0 0 0 0 0 0 0 0 0 0 0 0 0 0 0 0 0 0 0 0 0 0 0 0 0 0 0 0 ];
d=[ 15 65 92 53 31 27 65 61 95 80 7 74 14 44 62 48 49 20 44 78 72 33 20 84 16 42 11 12 9 58 85 85 5 44 104 5 16 36 6 31 93 38 57 71 24 0 90 82 16 6 36 78 78 92 36 87 43 102 93 70 34 60 53 89 30 28 51 59 22 89 90 43 61 19 6 24 55 44 78 55 49 103 97 3 23 8 37 41 47 98 48 76 37 73 9 64 87 69 105 52 20 75 55 87 64 53 80 49 12 1 30 10 42 75 56 53 95 96 79 42 95 90 13 29 102 73 66 101 8 99 64 77 42 39 51 94 83 94 25 97 101 86 75 51 55 82 71 33 24 33 42 80 11 93 94 55 13 0 90 105 81 51 74 104 46 80 44 25 75 82 69 98 30 59 18 25 10 102 0 21 22 27 102 40 62 32 6 62 39 28 89 60 33 68 35 15 37 16 1 50 48 78 60 4 84 2 1 7 60 65 80 50 5 46 76 94 71 13 51 71 55 99 50 70 44 82 3 85 92 68 70 25 25 20 16 36 90 99 14 69 6 71 76 105 94 9 97 23 14 4 65 94 53 65 72 28 69 25 77 103 31 66 8 93 12 76 104 53 42 37 2 89 14 37 26 98 97 80 73 12 19 84 33 34 1 82 50 23 75 42 99 11 102 98 54 31 61 65 36 64 45 77 60 19 7 61 92 1 17 88 89 67 48 8 94 22 76 17 82 67 2 64 64 23 34 9 98 87 73 62 73 61 91 25 40 56 29 76 9 58 7 76 9 42 18 66 34 52 74 11 50 38 44 23 38 96 102 98 62 26 85 97 18 26 102 24 24 45 96 72 44 44 41 98 25 36 10 14 85 72 39 36 66 27 21 63 17 19 98 103 34 94 103 35 53 43 58 105 49 76 56 89 23 82 75 92 44 8 47 51 48 63 101 22 91 73 23 25 55 66 100 6 29 57 59 10 74 3 89 92 39 102 27 105 30 39 83 70 95 84 103 23 48 64 74 48 52 103 78 24 38 0 35 62 56 71 52 86 52 3 71 3 4 14 71 50 90 51 8 27 98 104 96 39 84 55 104 43 29 68 94 20 22 1 44 68 37 4 55 94 2 39 29 100 68 54 95 24 60 92 63 66 5 88 93 36 82 104 6 85 29 41 72 23 14 73 67 66 33 92 32 5 78 76 63 84 39 22 53 64 84 101 70 62 41 75 24 1 42 58 3 12 24 23 11 8 68 51 63 25 7 20 63 32 98 30 79 96 43 68 65 28 34 36 18 11 37 98 64 9 88 90 43 101 22 100 59 76 73 44 34 13 19 8 7 67 18 65 44 62 23 85 86 103 27 22 60 1 19 90 22 59 9 88 46 83 10 90 96 67 81 6 60 14 5 74 49 20 67 99 25 33 48 10 23 26 54 71 78 43 ];
s=[ 1 1 1 1 1 1 1 1 1 1 1 1 1 1 1 1 1 1 1 1 1 1 1 1 1 1 1 1 1 1 1 1 1 1 1 1 1 1 1 1 1 1 1 1 1 1 1 1 1 1 1 1 1 1 1 1 1 1 1 1 1 1 1 1 1 1 1 1 1 1 1 1 1 1 1 1 1 1 1 1 1 1 1 1 1 1 1 1 1 1 1 1 1 1 1 1 1 1 1 1 1 1 1 1 1 1 1 1 1 1 1 1 1 1 1 1 1 1 1 1 1 1 1 1 1 1 1 1 1 1 1 1 1 1 1 1 1 1 1 1 1 1 1 1 1 1 1 1 1 1 1 1 1 1 1 1 1 1 1 1 1 1 1 1 1 1 1 1 1 1 1 1 1 1 1 1 1 1 1 1 1 1 1 1 1 1 1 1 1 1 1 1 1 1 1 1 1 1 1 1 1 1 1 1 1 1 1 1 1 1 1 1 1 1 1 1 1 1 1 1 1 1 1 1 1 1 1 1 1 1 1 1 1 1 1 1 1 1 1 1 1 1 1 1 1 1 1 1 1 1 1 1 1 1 1 1 1 1 1 1 1 1 1 1 1 1 1 1 1 1 1 1 1 1 1 1 1 1 1 1 1 1 1 1 1 1 1 1 1 1 1 1 1 1 1 1 1 1 1 1 1 1 1 1 1 1 1 1 1 1 1 1 1 1 1 1 1 1 1 1 1 1 1 1 1 1 1 1 1 1 1 1 1 1 1 1 1 1 1 1 1 1 1 1 1 1 1 1 1 1 1 1 1 1 1 1 1 1 1 1 1 1 1 1 1 1 1 1 1 1 1 1 1 1 1 1 1 1 1 1 1 1 1 1 1 1 1 1 1 1 1 1 1 1 1 1 1 1 1 1 1 1 1 1 1 1 1 1 1 1 1 1 1 1 1 1 1 1 1 1 1 1 1 1 1 1 1 1 1 1 1 1 1 1 1 1 1 1 1 1 1 1 1 1 1 1 1 1 1 1 1 1 1 1 1 1 1 1 1 1 1 1 1 1 1 1 1 1 1 1 1 1 1 1 1 1 1 1 1 1 1 1 1 1 1 1 1 1 1 1 1 1 1 1 1 1 1 1 1 1 1 1 1 1 1 1 1 1 1 1 1 1 1 1 1 1 1 1 1 1 1 1 1 1 1 1 1 1 1 1 1 1 1 1 1 1 1 1 1 1 1 1 1 1 1 1 1 1 1 1 1 1 1 1 1 1 1 1 1 1 1 1 1 1 1 1 1 1 1 1 1 1 1 1 1 1 1 1 1 1 1 1 1 1 1 1 1 1 1 1 1 1 1 1 1 1 1 1 1 1 1 1 1 1 1 1 1 1 1 1 1 1 1 1 1 1 1 1 1 1 1 1 1 1 1 1 1 1 1 1 ];
w=[ 3 1 1 5 2 2 3 5 4 2 2 3 3 5 3 5 1 5 5 5 2 3 1 3 3 4 4 1 2 4 4 2 4 3 4 4 3 1 5 4 3 3 5 2 5 3 3 5 3 5 3 5 4 4 2 2 5 1 5 5 2 2 3 1 5 2 1 1 1 5 4 4 5 5 4 4 3 3 4 2 4 4 2 1 3 2 2 1 4 1 3 3 1 5 3 1 4 5 1 1 2 4 5 5 3 5 3 4 3 2 5 2 3 5 4 1 5 1 5 1 5 3 3 1 2 2 5 1 1 1 5 2 3 4 5 3 4 5 1 3 5 1 3 2 4 3 3 2 2 1 2 4 3 2 4 1 3 4 2 3 2 2 2 1 3 1 4 3 5 1 2 5 1 2 4 1 1 4 2 1 2 2 3 3 5 4 1 2 4 2 3 1 4 3 1 5 1 5 5 1 3 5 2 4 3 3 3 5 3 4 3 4 3 2 1 3 2 2 3 1 5 5 2 5 4 3 4 1 2 4 2 1 1 3 1 5 4 1 4 2 4 3 1 3 2 5 4 2 1 4 3 5 2 2 2 3 3 1 1 5 4 2 1 3 4 1 5 2 5 3 5 3 3 3 1 3 2 4 2 3 4 4 5 1 2 3 1 1 2 3 3 1 3 1 1 1 3 1 4 4 1 3 5 4 3 4 5 3 4 1 5 3 1 3 3 2 4 4 3 3 1 2 5 1 1 2 5 2 4 3 5 2 3 5 5 3 4 1 1 4 4 2 5 4 3 3 4 2 4 3 4 2 5 1 1 1 4 2 4 5 1 4 4 5 1 2 2 2 3 3 5 4 3 1 5 4 2 1 2 5 1 5 3 5 2 5 1 4 2 3 4 3 3 5 2 1 3 1 2 2 1 1 5 1 3 5 4 2 5 4 4 5 4 2 4 4 4 4 5 4 2 3 5 3 5 3 5 1 5 2 5 5 4 1 4 3 2 2 4 4 2 1 1 3 5 2 3 3 3 5 5 2 1 4 5 1 4 2 4 5 3 2 2 4 4 1 2 5 1 3 4 1 1 2 2 2 5 4 2 4 1 4 1 1 4 5 3 2 1 2 5 1 5 5 1 5 3 4 3 1 4 4 2 1 2 3 1 4 1 2 3 3 3 1 3 4 4 2 3 5 4 3 4 1 4 3 3 4 4 2 2 4 4 3 4 5 2 3 2 4 4 5 3 1 2 1 3 5 2 4 3 3 4 3 3 3 4 1 5 2 5 5 4 2 4 4 5 2 3 3 3 4 5 2 2 4 1 1 3 3 5 5 5 2 5 1 3 4 4 4 4 4 1 3 2 5 3 4 4 4 4 3 5 2 4 1 5 3 1 4 2 4 1 5 5 5 2 4 4 5 5 4 1 5 5 1 3 2 5 1 ];
f=[ 1 1 1 1 1 1 1 1 1 1 1 1 1 1 1 1 1 1 1 1 1 1 1 1 1 1 1 1 1 1 1 1 1 1 1 1 1 1 1 1 1 1 1 1 1 1 1 1 1 1 1 1 1 1 1 1 1 1 1 1 1 1 1 1 1 1 1 1 1 1 1 1 1 1 1 1 1 1 1 1 1 1 1 1 1 1 1 1 1 1 1 1 1 1 1 1 1 1 1 1 1 1 1 1 1 1 1 1 1 1 1 1 1 1 1 1 1 1 1 1 1 1 1 1 1 1 1 1 1 1 1 1 1 1 1 1 1 1 1 1 1 1 1 1 1 1 1 1 1 1 1 1 1 1 1 1 1 1 1 1 1 1 1 1 1 1 1 1 1 1 1 1 1 1 1 1 1 1 1 1 1 1 1 1 1 1 1 1 1 1 1 1 1 1 1 1 1 1 1 1 1 1 1 1 1 1 1 1 1 1 2 2 2 2 2 2 2 2 2 2 2 2 2 2 2 2 2 2 2 2 2 2 2 2 2 2 2 2 2 2 2 2 2 2 2 2 2 2 2 2 2 2 2 2 2 2 2 2 2 2 2 2 2 2 2 2 2 2 2 2 2 2 2 2 2 2 2 2 2 2 2 2 2 2 2 2 2 2 2 2 2 2 2 2 2 2 2 2 2 2 2 2 2 2 2 2 2 2 2 2 2 2 2 2 2 2 2 2 2 2 2 2 2 2 2 2 2 2 2 2 2 2 2 2 2 2 2 2 2 2 2 2 2 2 2 2 2 2 2 2 2 2 2 2 2 2 2 2 2 2 2 2 2 2 2 2 2 2 2 2 2 2 2 2 2 2 2 2 2 2 2 2 2 2 2 2 2 2 2 2 2 2 2 2 2 2 2 2 2 2 2 2 2 2 2 2 2 2 2 2 2 2 2 2 2 2 2 2 2 2 3 3 3 3 3 3 3 3 3 3 3 3 3 3 3 3 3 3 3 3 3 3 3 3 3 3 3 3 3 3 3 3 3 3 3 3 3 3 3 3 3 3 3 3 3 3 3 3 3 3 3 3 3 3 3 3 3 3 3 3 3 3 3 3 3 3 3 3 3 3 3 3 3 3 3 3 3 3 3 3 3 3 3 3 3 3 3 3 3 3 3 3 3 3 3 3 3 3 3 3 3 3 3 3 3 3 3 3 3 3 3 3 3 3 3 3 3 3 3 3 3 3 3 3 3 3 3 3 3 3 3 3 3 3 3 3 3 3 3 3 3 3 3 3 3 3 3 3 3 3 3 3 3 3 3 3 3 3 3 3 3 3 3 3 3 3 3 3 3 3 3 3 3 3 3 3 3 3 3 3 3 3 3 3 3 3 3 3 3 3 3 3 3 3 3 3 3 3 3 3 3 3 3 3 3 3 3 3 3 3 ];

e1=[ 10 10 10 10 10 10 10 10 10 10 10 10 10 10 10 10 10 10 10 10 10 10 10 10 10 10 10 10 10 10 10 10 10 10 10 10 10 10 10 10 10 10 10 10 10 10 10 10 10 10 10 10 10 10 10 10 10 10 10 10 10 10 10 10 10 10 8 8 8 8 8 8 8 8 8 8 8 8 8 8 8 8 8 8 8 8 8 8 8 8 8 8 8 8 8 8 8 8 8 8 8 8 8 8 8 8 8 8 8 8 8 8 8 8 8 8 8 8 8 8 8 8 8 8 8 8 8 8 8 8 8 8 ];
e2=[ 10 10 10 10 10 10 10 10 10 10 10 10 10 10 10 10 10 10 10 10 10 10 10 10 10 10 10 10 10 10 10 10 10 10 10 10 10 10 10 10 10 10 10 10 9 9 9 9 9 9 9 9 9 9 9 9 9 9 9 9 9 9 9 9 9 9 8 8 8 8 8 8 8 8 8 8 8 8 8 8 8 8 8 8 8 8 8 8 8 8 8 8 8 8 8 8 8 8 8 8 8 8 8 8 8 8 8 8 8 8 9 9 9 9 9 9 9 9 9 9 9 9 9 9 9 9 9 9 9 9 9 9 ];